Problem:    
Rows:       248
Columns:    89 (72 integer, 72 binary)
Non-zeros:  820
Status:     INTEGER OPTIMAL
Objective:  value = 272.5999 (MINimum)

   No.   Row name        Activity     Lower bound   Upper bound
------ ------------    ------------- ------------- -------------
     1 r.5                     272.6             0               
     2 r.6                  -1602.21      -1934.73               
     3 r.7                    2272.6             0               
     4 r.8                  -1958.85      -1962.58               
     5 r.9                    2272.6             0               
     6 r.10                 -1865.18      -1925.27               
     7 r.11                    272.6             0               
     8 r.12                 -22.7467      -1959.59               
     9 r.13                    272.6             0               
    10 r.14                   7.4294      -1890.84               
    11 r.15                   2272.6             0               
    12 r.16                 -1849.57      -1936.89               
    13 r.17                    272.6             0               
    14 r.18                 -1669.98      -1942.58               
    15 r.19                   2272.6             0               
    16 r.20                 -1917.68      -1963.84               
    17 r.21                   2272.6             0               
    18 r.22                 -1939.91      -1947.34               
    19 r.23                    272.6             0               
    20 r.24                  3.73087      -1968.52               
    21 r.25                   2272.6             0               
    22 r.26                  -1727.4      -1864.72               
    23 r.27                    272.6             0               
    24 r.28                 -1660.48      -1933.08               
    25 r.29                    272.6             0               
    26 r.30                  137.316      -1864.62               
    27 r.31                   2272.6             0               
    28 r.32                  -1727.4      -1933.46               
    29 r.33                   2272.6             0               
    30 r.34                 -1997.57      -1997.57               
    31 r.35                    272.6             0               
    32 r.36                 -1967.78      -1967.78               
    33 r.37                        1             1             = 
    34 r.38                        1             1             = 
    35 r.39                        1             1             = 
    36 r.40                        1             1             = 
    37 r.41                        1             1             = 
    38 r.42                        1             1             = 
    39 r.43                        1             1             = 
    40 r.44                        1             1             = 
    41 r.45                  1739.52        74.729               
    42 r.46                 -1742.02      -1934.73               
    43 r.47                   1931.1       40.4084               
    44 r.48                  -1926.1      -1962.58               
    45 r.49                  1612.13       109.163               
    46 r.50                 -1612.13      -1934.73               
    47 r.51                  104.274       63.1116               
    48 r.52                 -104.274      -1962.58               
    49 r.53                  1934.73       57.4205               
    50 r.54                 -1934.73      -1934.73               
    51 r.55                  36.1622       36.1622               
    52 r.56                 -36.1622      -1962.58               
    53 r.57                  1664.79       52.6575               
    54 r.58                 -1664.79      -1934.73               
    55 r.59                  1957.58       31.4776               
    56 r.60                 -1957.58      -1962.58               
    57 r.61                 -122.695       -1836.9               
    58 r.62                 -55.7746      -1877.45               
    59 r.63                 -1773.55       -1836.9               
    60 r.64                 -1706.63      -1877.45               
    61 r.65                  1742.02       135.377               
    62 r.66                 -1742.02      -1934.73               
    63 r.67                  226.447       66.5382               
    64 r.68                 -226.447      -1962.58               
    65 r.69                 -1607.13      -1932.23               
    66 r.70                 -1956.28      -1957.58               
    67 r.71                  363.074      -1932.23               
    68 r.72                   13.933      -1957.58               
    69 r.73                  260.479       65.2742               
    70 r.74                 -257.979      -1925.27               
    71 r.75                  68.9001       37.4225               
    72 r.76                 -73.9001      -1959.59               
    73 r.77                  1870.11       109.163               
    74 r.78                 -1870.11      -1925.27               
    75 r.79                  178.174       63.1116               
    76 r.80                 -178.174      -1959.59               
    77 r.81                  192.705       57.4205               
    78 r.82                 -192.705      -1925.27               
    79 r.83                  110.062       36.1622               
    80 r.84                 -110.062      -1959.59               
    81 r.85                  1922.77       52.6575               
    82 r.86                 -1922.77      -1925.27               
    83 r.87                  31.4776       31.4776               
    84 r.88                 -31.4776      -1959.59               
    85 r.89                  135.284       135.284               
    86 r.90                 -135.284      -1925.27               
    87 r.91                  367.267       66.9202               
    88 r.92                 -367.267      -1959.59               
    89 r.93                        0      -1836.81               
    90 r.94                 -1864.72      -1877.83               
    91 r.95                  165.063      -1836.81               
    92 r.96                 -1699.65      -1877.83               
    93 r.97                 -1865.11      -1922.77               
    94 r.98                 -30.1761      -1954.59               
    95 r.99                  105.095      -1922.77               
    96 r.100                 1940.03      -1954.59               
    97 r.101                 390.365       65.2742               
    98 r.102                -387.865      -1890.84               
    99 r.103                 1890.73       37.4225               
   100 r.104                -1895.73      -1936.89               
   101 r.105                 127.386        74.729               
   102 r.106                -129.886      -1890.84               
   103 r.107                 1826.83       40.4084               
   104 r.108                -1821.83      -1936.89               
   105 r.109                 1677.41      -1888.34               
   106 r.110                -179.593      -1931.89               
   107 r.111                -74.8862      -1888.34               
   108 r.112                -1931.89      -1931.89               
   109 r.113                 52.6575       52.6575               
   110 r.114                -52.6575      -1890.84               
   111 r.115                  1853.3       31.4776               
   112 r.116                 -1853.3      -1936.89               
   113 r.117                  265.17       135.284               
   114 r.118                 -265.17      -1890.84               
   115 r.119                 189.093       66.9202               
   116 r.120                -189.093      -1936.89               
   117 r.121                 129.886      -1836.81               
   118 r.122                -1734.83      -1877.83               
   119 r.123                -13.1113      -1836.81               
   120 r.124                -1877.83      -1877.83               
   121 r.125                       5      -1888.34               
   122 r.126                   -1852      -1931.89               
   123 r.127                 1975.21      -1888.34               
   124 r.128                 118.207      -1931.89               
   125 r.129                 67.7742       65.2742               
   126 r.130                -65.2742      -1942.58               
   127 r.131                 1958.84       37.4225               
   128 r.132                -1963.84      -1963.84               
   129 r.133                  1804.8        74.729               
   130 r.134                 -1807.3      -1942.58               
   131 r.135                 1894.94       40.4084               
   132 r.136                -1889.94      -1963.84               
   133 r.137                 1677.41      -1888.34               
   134 r.138                -179.593      -1931.89               
   135 r.139                -74.8862      -1888.34               
   136 r.140                -1931.89      -1931.89               
   137 r.141                 1730.07       52.6575               
   138 r.142                -1730.07      -1942.58               
   139 r.143                 1921.42       31.4776               
   140 r.144                -1921.42      -1963.84               
   141 r.145                 1942.58       135.284               
   142 r.146                -1942.58      -1942.58               
   143 r.147                 257.205       66.9202               
   144 r.148                -257.205      -1963.84               
   145 r.149                  1807.3      -1836.81               
   146 r.150                -57.4206      -1877.83               
   147 r.151                 55.0003      -1836.81               
   148 r.152                -1809.72      -1877.83               
   149 r.153                -1672.41      -1928.95               
   150 r.154                -1920.11      -1936.58               
   151 r.155                   297.8      -1928.95               
   152 r.156                 50.0952      -1936.58               
   153 r.157                 337.708       65.2742               
   154 r.158                -335.208      -1947.34               
   155 r.159                 37.4225       37.4225               
   156 r.160                -42.4225      -1968.52               
   157 r.161                  74.729        74.729               
   158 r.162                 -77.229      -1947.34               
   159 r.163                 1973.52       40.4084               
   160 r.164                -1968.52      -1968.52               
   161 r.165                 1947.34       109.163               
   162 r.166                -1947.34      -1947.34               
   163 r.167                 146.696       63.1116               
   164 r.168                -146.696      -1968.52               
   165 r.169                 269.934       57.4205               
   166 r.170                -269.934      -1947.34               
   167 r.171                 78.5847       36.1622               
   168 r.172                -78.5847      -1968.52               
   169 r.173                -1787.49       -1836.9               
   170 r.174                -1720.57      -1877.45               
   171 r.175                -1731.13       -1836.9               
   172 r.176                -1664.21      -1877.45               
   173 r.177                  77.229      -1836.81               
   174 r.178                -1787.49      -1877.83               
   175 r.179                 133.585      -1836.81               
   176 r.180                -1731.13      -1877.83               
   177 r.181                -1942.34      -1942.34               
   178 r.182                 1.30147      -1958.52               
   179 r.183                 27.8665      -1942.34               
   180 r.184                 1971.51      -1958.52               
   181 r.185                -122.695       -1836.9               
   182 r.186                -55.7746      -1877.45               
   183 r.187                -1773.55       -1836.9               
   184 r.188                -1706.63      -1877.45               
   185 r.189                 1862.22        74.729               
   186 r.190                -1864.72      -1864.72               
   187 r.191                 1637.73       40.4084               
   188 r.192                -1632.73      -1933.08               
   189 r.193                 1734.83       109.163               
   190 r.194                -1734.83      -1864.72               
   191 r.195                 1810.91       63.1116               
   192 r.196                -1810.91      -1933.08               
   193 r.197                 57.4206       57.4205               
   194 r.198                -57.4206      -1864.72               
   195 r.199                  1742.8       36.1622               
   196 r.200                 -1742.8      -1933.08               
   197 r.201                -1787.49       -1836.9               
   198 r.202                -1720.57      -1877.45               
   199 r.203                -1731.13       -1836.9               
   200 r.204                -1664.21      -1877.45               
   201 r.205                 1864.72       135.377               
   202 r.206                -1864.72      -1864.72               
   203 r.207                 1933.08       66.5382               
   204 r.208                -1933.08      -1933.08               
   205 r.209                 260.479       65.2742               
   206 r.210                -257.979      -1864.62               
   207 r.211                 1768.55       37.4225               
   208 r.212                -1773.55      -1933.46               
   209 r.213                       0      -1836.81               
   210 r.214                -1864.72      -1877.83               
   211 r.215                 165.063      -1836.81               
   212 r.216                -1699.65      -1877.83               
   213 r.217                 129.886      -1836.81               
   214 r.218                -1734.83      -1877.83               
   215 r.219                -13.1113      -1836.81               
   216 r.220                -1877.83      -1877.83               
   217 r.221                  1807.3      -1836.81               
   218 r.222                -57.4206      -1877.83               
   219 r.223                 55.0003      -1836.81               
   220 r.224                -1809.72      -1877.83               
   221 r.225                  77.229      -1836.81               
   222 r.226                -1787.49      -1877.83               
   223 r.227                 133.585      -1836.81               
   224 r.228                -1731.13      -1877.83               
   225 r.229                 135.284       135.284               
   226 r.230                -135.284      -1864.62               
   227 r.231                 66.9202       66.9202               
   228 r.232                -66.9202      -1933.46               
   229 r.233                -1607.13      -1932.23               
   230 r.234                -1956.28      -1957.58               
   231 r.235                 363.074      -1932.23               
   232 r.236                  13.933      -1957.58               
   233 r.237                -1865.11      -1922.77               
   234 r.238                -30.1761      -1954.59               
   235 r.239                 105.095      -1922.77               
   236 r.240                 1940.03      -1954.59               
   237 r.241                       5      -1888.34               
   238 r.242                   -1852      -1931.89               
   239 r.243                 1975.21      -1888.34               
   240 r.244                 118.207      -1931.89               
   241 r.245                -1672.41      -1928.95               
   242 r.246                -1920.11      -1936.58               
   243 r.247                   297.8      -1928.95               
   244 r.248                 50.0952      -1936.58               
   245 r.249                -1942.34      -1942.34               
   246 r.250                 1.30147      -1958.52               
   247 r.251                 27.8665      -1942.34               
   248 r.252                 1971.51      -1958.52               

   No. Column name       Activity     Lower bound   Upper bound
------ ------------    ------------- ------------- -------------
     1 tt                      272.6             0               
     2 s_1_1        *              0             0             1 
     3 t_1_1                 1877.31             0               
     4 s_1_6        *              1             0             1 
     5 s_2_1        *              1             0             1 
     6 t_2_1                 226.447             0               
     7 s_2_6        *              0             0             1 
     8 s_1_2        *              1             0             1 
     9 t_1_2                 135.284             0               
    10 s_1_7        *              0             0             1 
    11 s_2_2        *              0             0             1 
    12 t_2_2                 300.347             0               
    13 s_2_7        *              1             0             1 
    14 s_1_3        *              0             0             1 
    15 t_1_3                  265.17             0               
    16 s_2_3        *              1             0             1 
    17 t_2_3                 122.173             0               
    18 s_1_4        *              0             0             1 
    19 t_1_4                 1942.58             0               
    20 s_2_4        *              1             0             1 
    21 t_2_4                 190.284             0               
    22 s_1_5        *              1             0             1 
    23 t_1_5                 212.513             0               
    24 s_2_5        *              0             0             1 
    25 t_2_5                 268.869             0               
    26 t_1_6                       0             0               
    27 t_2_6                 1933.08             0               
    28 t_1_7                 135.284             0               
    29 t_2_7                       0             0               
    30 s_1_8        *              1             0             1 
    31 t_1_8                  270.17             0               
    32 s_2_8        *              0             0             1 
    33 t_2_8                 2240.38             0               
    34 u_1_1_2      *              0             0             1 
    35 u_2_1_2      *              1             0             1 
    36 u_1_1_3      *              0             0             1 
    37 u_2_1_3      *              0             0             1 
    38 u_1_1_4      *              1             0             1 
    39 u_2_1_4      *              0             0             1 
    40 u_1_1_5      *              0             0             1 
    41 u_2_1_5      *              1             0             1 
    42 u_1_1_7      *              0             0             1 
    43 u_2_1_7      *              0             0             1 
    44 u_1_2_1      *              1             0             1 
    45 u_2_2_1      *              0             0             1 
    46 u_1_2_3      *              1             0             1 
    47 u_2_2_3      *              0             0             1 
    48 u_1_2_4      *              1             0             1 
    49 u_2_2_4      *              0             0             1 
    50 u_1_2_5      *              1             0             1 
    51 u_2_2_5      *              0             0             1 
    52 u_1_2_6      *              0             0             1 
    53 u_2_2_6      *              1             0             1 
    54 u_1_3_1      *              1             0             1 
    55 u_2_3_1      *              1             0             1 
    56 u_1_3_2      *              0             0             1 
    57 u_2_3_2      *              1             0             1 
    58 u_1_3_5      *              0             0             1 
    59 u_2_3_5      *              1             0             1 
    60 u_1_3_6      *              0             0             1 
    61 u_2_3_6      *              1             0             1 
    62 u_1_4_1      *              0             0             1 
    63 u_2_4_1      *              1             0             1 
    64 u_1_4_2      *              0             0             1 
    65 u_2_4_2      *              1             0             1 
    66 u_1_4_5      *              0             0             1 
    67 u_2_4_5      *              1             0             1 
    68 u_1_4_6      *              0             0             1 
    69 u_2_4_6      *              1             0             1 
    70 u_1_5_1      *              1             0             1 
    71 u_2_5_1      *              0             0             1 
    72 u_1_5_2      *              0             0             1 
    73 u_2_5_2      *              1             0             1 
    74 u_1_5_3      *              1             0             1 
    75 u_2_5_3      *              0             0             1 
    76 u_1_5_4      *              1             0             1 
    77 u_2_5_4      *              0             0             1 
    78 u_1_6_2      *              1             0             1 
    79 u_2_6_2      *              0             0             1 
    80 u_1_6_3      *              1             0             1 
    81 u_2_6_3      *              0             0             1 
    82 u_1_6_4      *              1             0             1 
    83 u_2_6_4      *              0             0             1 
    84 u_1_6_7      *              1             0             1 
    85 u_2_6_7      *              0             0             1 
    86 u_1_7_1      *              1             0             1 
    87 u_2_7_1      *              1             0             1 
    88 u_1_7_6      *              0             0             1 
    89 u_2_7_6      *              1             0             1 

Integer feasibility conditions:

KKT.PE: max.abs.err = 4.55e-13 on row 30
        max.rel.err = 1.02e-16 on row 44
        High quality

KKT.PB: max.abs.err = 2.27e-13 on row 30
        max.rel.err = 2.65e-15 on row 109
        High quality

End of output
